
Log started (V12.5.0.0) Thu Dec 19 17:40:55 2013


Problem 'I4_primal' read.
Read time = 0.01 sec. (0.01 ticks)
Tried aggregator 1 time.
LP Presolve eliminated 68 rows and 18 columns.
Reduced LP has 12 rows, 12 columns, and 32 nonzeros.
Presolve time = 0.00 sec. (0.05 ticks)

Iteration log . . .
Iteration:     1   Dual objective     =             5.742857

Dual simplex - Optimal:  Objective =  1.5251831502e+01
Solution time =    0.00 sec.  Iterations = 11 (0)
Deterministic time = 0.09 ticks  (75.81 ticks/sec)


Solution written to file 'I4_primal_sol.txt'.

Problem 'I4_dual' read.
Read time = 0.01 sec. (0.01 ticks)
Tried aggregator 1 time.
LP Presolve eliminated 19 rows and 67 columns.
Aggregator did 1 substitutions.
Reduced LP has 10 rows, 12 columns, and 30 nonzeros.
Presolve time = 0.00 sec. (0.05 ticks)

Iteration log . . .
Iteration:     1   Scaled dual infeas =             8.999998
Iteration:     4   Dual objective     =            31.480952

Dual simplex - Optimal:  Objective =  1.5251831502e+01
Solution time =    0.00 sec.  Iterations = 10 (3)
Deterministic time = 0.09 ticks  (86.66 ticks/sec)


Solution written to file 'I4_dual_sol.txt'.

Variable Name           Solution Value
y1                            0.336310
y10                           0.092593
y14                           0.253846
y17                           0.246154
y19                           0.291667
y20                           0.666667
y21                           0.541667
y24                           0.166667
y27                           0.146154
y79                           0.083333
All other variables matching '*' are 0.
CPLEX Error  1425: XML parsing error at line 1: syntax error.
No file read.

Problem 'I4_primal' read.
Read time = 0.02 sec. (0.01 ticks)
Tried aggregator 1 time.
LP Presolve eliminated 68 rows and 18 columns.
Reduced LP has 12 rows, 12 columns, and 32 nonzeros.
Presolve time = 0.00 sec. (0.05 ticks)

Iteration log . . .
Iteration:     1   Dual objective     =             5.742857

Dual simplex - Optimal:  Objective =  1.5251831502e+01
Solution time =    0.00 sec.  Iterations = 11 (0)
Deterministic time = 0.09 ticks  (93.93 ticks/sec)

